c strEdges: 189  randomEdges: 441 
c degrees:  2  3 
c girth: 10 max: 8.032766  
c Hgirth mixed MAXCUT instance
c generated from an undirected graph
c to solve unweighted MaxCut
p cnf 140 1260
77 92 0
-77 -92 0
77 28 0
-77 -28 0
77 91 0
-77 -91 0
59 116 0
-59 -116 0
59 75 0
-59 -75 0
59 83 0
-59 -83 0
125 75 0
-125 -75 0
125 67 0
-125 -67 0
125 123 0
-125 -123 0
14 44 0
-14 -44 0
14 96 0
-14 -96 0
14 112 0
-14 -112 0
104 134 0
-104 -134 0
104 35 0
-104 -35 0
104 105 0
-104 -105 0
120 36 0
-120 -36 0
120 75 0
-120 -75 0
84 4 0
-84 -4 0
84 57 0
-84 -57 0
100 49 0
-100 -49 0
100 132 0
-100 -132 0
33 103 0
-33 -103 0
33 36 0
-33 -36 0
1 126 0
-1 -126 0
1 138 0
-1 -138 0
74 45 0
-74 -45 0
74 34 0
-74 -34 0
74 37 0
-74 -37 0
56 69 0
-56 -69 0
56 73 0
-56 -73 0
40 11 0
-40 -11 0
40 29 0
-40 -29 0
12 35 0
-12 -35 0
12 18 0
-12 -18 0
48 76 0
-48 -76 0
48 70 0
-48 -70 0
48 73 0
-48 -73 0
25 122 0
-25 -122 0
25 96 0
-25 -96 0
25 4 0
-25 -4 0
23 42 0
-23 -42 0
23 130 0
-23 -130 0
23 85 0
-23 -85 0
43 13 0
-43 -13 0
43 4 0
-43 -4 0
43 26 0
-43 -26 0
51 138 0
-51 -138 0
51 8 0
-51 -8 0
140 62 0
-140 -62 0
140 76 0
-140 -76 0
140 71 0
-140 -71 0
16 86 0
-16 -86 0
16 105 0
-16 -105 0
114 132 0
-114 -132 0
114 112 0
-114 -112 0
114 61 0
-114 -61 0
65 29 0
-65 -29 0
65 71 0
-65 -71 0
65 67 0
-65 -67 0
64 123 0
-64 -123 0
64 45 0
-64 -45 0
64 137 0
-64 -137 0
88 91 0
-88 -91 0
88 103 0
-88 -103 0
88 128 0
-88 -128 0
93 61 0
-93 -61 0
93 137 0
-93 -137 0
93 121 0
-93 -121 0
3 83 0
-3 -83 0
3 57 0
-3 -57 0
3 37 0
-3 -37 0
79 5 0
-79 -5 0
79 31 0
-79 -31 0
79 24 0
-79 -24 0
81 121 0
-81 -121 0
81 10 0
-81 -10 0
58 73 0
-58 -73 0
58 118 0
-58 -118 0
58 42 0
-58 -42 0
82 31 0
-82 -31 0
82 63 0
-82 -63 0
82 11 0
-82 -11 0
131 50 0
-131 -50 0
131 76 0
-131 -76 0
89 8 0
-89 -8 0
89 50 0
-89 -50 0
89 124 0
-89 -124 0
9 124 0
-9 -124 0
9 78 0
-9 -78 0
9 86 0
-9 -86 0
87 97 0
-87 -97 0
87 13 0
-87 -13 0
19 10 0
-19 -10 0
19 134 0
-19 -134 0
19 2 0
-19 -2 0
54 52 0
-54 -52 0
54 38 0
-54 -38 0
54 90 0
-54 -90 0
53 63 0
-53 -63 0
53 86 0
-53 -86 0
53 118 0
-53 -118 0
15 118 0
-15 -118 0
15 123 0
-15 -123 0
107 2 0
-107 -2 0
107 36 0
-107 -36 0
107 41 0
-107 -41 0
108 47 0
-108 -47 0
108 17 0
-108 -17 0
21 137 0
-21 -137 0
21 47 0
-21 -47 0
20 55 0
-20 -55 0
20 136 0
-20 -136 0
20 97 0
-20 -97 0
135 128 0
-135 -128 0
135 110 0
-135 -110 0
135 27 0
-135 -27 0
22 17 0
-22 -17 0
22 2 0
-22 -2 0
102 27 0
-102 -27 0
102 69 0
-102 -69 0
102 132 0
-102 -132 0
66 130 0
-66 -130 0
66 44 0
-66 -44 0
66 55 0
-66 -55 0
6 57 0
-6 -57 0
6 49 0
-6 -49 0
6 11 0
-6 -11 0
106 24 0
-106 -24 0
106 50 0
-106 -50 0
106 128 0
-106 -128 0
7 38 0
-7 -38 0
7 63 0
-7 -63 0
101 34 0
-101 -34 0
101 111 0
-101 -111 0
101 122 0
-101 -122 0
30 18 0
-30 -18 0
30 103 0
-30 -103 0
30 38 0
-30 -38 0
94 28 0
-94 -28 0
94 49 0
-94 -49 0
94 134 0
-94 -134 0
99 105 0
-99 -105 0
99 116 0
-99 -116 0
99 5 0
-99 -5 0
60 112 0
-60 -112 0
60 24 0
-60 -24 0
98 46 0
-98 -46 0
98 70 0
-98 -70 0
98 121 0
-98 -121 0
127 67 0
-127 -67 0
127 139 0
-127 -139 0
127 97 0
-127 -97 0
115 136 0
-115 -136 0
115 31 0
-115 -31 0
115 46 0
-115 -46 0
117 85 0
-117 -85 0
117 17 0
-117 -17 0
117 29 0
-117 -29 0
32 26 0
-32 -26 0
32 69 0
-32 -69 0
32 138 0
-32 -138 0
133 96 0
-133 -96 0
133 18 0
-133 -18 0
119 78 0
-119 -78 0
119 47 0
-119 -47 0
119 27 0
-119 -27 0
113 41 0
-113 -41 0
113 5 0
-113 -5 0
113 126 0
-113 -126 0
80 70 0
-80 -70 0
80 116 0
-80 -116 0
80 122 0
-80 -122 0
39 37 0
-39 -37 0
39 126 0
-39 -126 0
39 130 0
-39 -130 0
68 71 0
-68 -71 0
68 111 0
-68 -111 0
68 35 0
-68 -35 0
72 90 0
-72 -90 0
72 26 0
-72 -26 0
72 10 0
-72 -10 0
109 110 0
-109 -110 0
109 62 0
-109 -62 0
109 44 0
-109 -44 0
129 111 0
-129 -111 0
129 52 0
-129 -52 0
95 139 0
-95 -139 0
95 92 0
-95 -92 0
95 124 0
-95 -124 0
16 53 0
-16 -53 0
79 50 0
-79 -50 0
39 116 0
-39 -116 0
9 80 0
-9 -80 0
79 109 0
-79 -109 0
21 98 0
-21 -98 0
66 118 0
-66 -118 0
87 112 0
-87 -112 0
51 41 0
-51 -41 0
94 136 0
-94 -136 0
13 132 0
-13 -132 0
5 118 0
-5 -118 0
48 11 0
-48 -11 0
59 61 0
-59 -61 0
30 122 0
-30 -122 0
19 27 0
-19 -27 0
20 116 0
-20 -116 0
56 17 0
-56 -17 0
87 95 0
-87 -95 0
31 28 0
-31 -28 0
10 67 0
-10 -67 0
88 123 0
-88 -123 0
43 123 0
-43 -123 0
51 110 0
-51 -110 0
119 28 0
-119 -28 0
104 140 0
-104 -140 0
120 57 0
-120 -57 0
126 78 0
-126 -78 0
15 127 0
-15 -127 0
114 93 0
-114 -93 0
43 96 0
-43 -96 0
56 87 0
-56 -87 0
53 121 0
-53 -121 0
84 140 0
-84 -140 0
12 113 0
-12 -113 0
48 44 0
-48 -44 0
16 98 0
-16 -98 0
75 111 0
-75 -111 0
66 29 0
-66 -29 0
80 90 0
-80 -90 0
84 36 0
-84 -36 0
126 70 0
-126 -70 0
65 17 0
-65 -17 0
125 110 0
-125 -110 0
62 24 0
-62 -24 0
23 78 0
-23 -78 0
109 31 0
-109 -31 0
125 54 0
-125 -54 0
109 134 0
-109 -134 0
60 63 0
-60 -63 0
88 99 0
-88 -99 0
94 5 0
-94 -5 0
12 75 0
-12 -75 0
106 118 0
-106 -118 0
43 111 0
-43 -111 0
12 29 0
-12 -29 0
16 62 0
-16 -62 0
7 18 0
-7 -18 0
20 92 0
-20 -92 0
33 90 0
-33 -90 0
47 136 0
-47 -136 0
62 61 0
-62 -61 0
40 24 0
-40 -24 0
59 36 0
-59 -36 0
88 21 0
-88 -21 0
18 28 0
-18 -28 0
33 26 0
-33 -26 0
104 3 0
-104 -3 0
103 132 0
-103 -132 0
74 56 0
-74 -56 0
61 137 0
-61 -137 0
81 119 0
-81 -119 0
51 36 0
-51 -36 0
99 130 0
-99 -130 0
35 83 0
-35 -83 0
45 122 0
-45 -122 0
101 116 0
-101 -116 0
104 57 0
-104 -57 0
88 60 0
-88 -60 0
44 73 0
-44 -73 0
13 86 0
-13 -86 0
6 98 0
-6 -98 0
74 91 0
-74 -91 0
44 46 0
-44 -46 0
140 31 0
-140 -31 0
12 130 0
-12 -130 0
122 5 0
-122 -5 0
82 122 0
-82 -122 0
131 30 0
-131 -30 0
114 18 0
-114 -18 0
125 52 0
-125 -52 0
39 137 0
-39 -137 0
51 95 0
-51 -95 0
83 26 0
-83 -26 0
5 2 0
-5 -2 0
51 131 0
-51 -131 0
12 87 0
-12 -87 0
7 70 0
-7 -70 0
6 136 0
-6 -136 0
108 31 0
-108 -31 0
102 31 0
-102 -31 0
56 138 0
-56 -138 0
68 57 0
-68 -57 0
48 36 0
-48 -36 0
14 10 0
-14 -10 0
104 85 0
-104 -85 0
22 86 0
-22 -86 0
120 85 0
-120 -85 0
15 112 0
-15 -112 0
116 2 0
-116 -2 0
39 70 0
-39 -70 0
53 110 0
-53 -110 0
76 70 0
-76 -70 0
23 26 0
-23 -26 0
29 90 0
-29 -90 0
87 63 0
-87 -63 0
80 85 0
-80 -85 0
48 47 0
-48 -47 0
83 71 0
-83 -71 0
12 54 0
-12 -54 0
93 118 0
-93 -118 0
125 41 0
-125 -41 0
120 67 0
-120 -67 0
100 115 0
-100 -115 0
3 89 0
-3 -89 0
9 76 0
-9 -76 0
89 21 0
-89 -21 0
30 24 0
-30 -24 0
59 13 0
-59 -13 0
4 128 0
-4 -128 0
72 41 0
-72 -41 0
12 109 0
-12 -109 0
127 130 0
-127 -130 0
7 72 0
-7 -72 0
126 26 0
-126 -26 0
39 78 0
-39 -78 0
81 132 0
-81 -132 0
42 52 0
-42 -52 0
129 137 0
-129 -137 0
13 41 0
-13 -41 0
7 68 0
-7 -68 0
53 49 0
-53 -49 0
1 11 0
-1 -11 0
138 130 0
-138 -130 0
32 113 0
-32 -113 0
11 8 0
-11 -8 0
64 11 0
-64 -11 0
119 128 0
-119 -128 0
100 131 0
-100 -131 0
48 5 0
-48 -5 0
15 42 0
-15 -42 0
99 122 0
-99 -122 0
19 86 0
-19 -86 0
48 60 0
-48 -60 0
40 9 0
-40 -9 0
33 53 0
-33 -53 0
135 42 0
-135 -42 0
48 71 0
-48 -71 0
23 107 0
-23 -107 0
24 110 0
-24 -110 0
130 96 0
-130 -96 0
48 65 0
-48 -65 0
103 47 0
-103 -47 0
115 32 0
-115 -32 0
60 47 0
-60 -47 0
15 92 0
-15 -92 0
64 22 0
-64 -22 0
19 30 0
-19 -30 0
82 118 0
-82 -118 0
8 28 0
-8 -28 0
30 91 0
-30 -91 0
134 111 0
-134 -111 0
115 85 0
-115 -85 0
130 105 0
-130 -105 0
66 86 0
-66 -86 0
9 133 0
-9 -133 0
94 76 0
-94 -76 0
4 118 0
-4 -118 0
131 22 0
-131 -22 0
14 126 0
-14 -126 0
102 78 0
-102 -78 0
35 8 0
-35 -8 0
18 136 0
-18 -136 0
45 110 0
-45 -110 0
125 108 0
-125 -108 0
69 97 0
-69 -97 0
39 8 0
-39 -8 0
42 90 0
-42 -90 0
47 90 0
-47 -90 0
21 129 0
-21 -129 0
92 26 0
-92 -26 0
34 37 0
-34 -37 0
12 2 0
-12 -2 0
54 117 0
-54 -117 0
14 47 0
-14 -47 0
83 78 0
-83 -78 0
114 131 0
-114 -131 0
108 83 0
-108 -83 0
13 47 0
-13 -47 0
80 52 0
-80 -52 0
99 46 0
-99 -46 0
104 51 0
-104 -51 0
60 29 0
-60 -29 0
74 105 0
-74 -105 0
1 61 0
-1 -61 0
9 73 0
-9 -73 0
71 111 0
-71 -111 0
15 108 0
-15 -108 0
59 86 0
-59 -86 0
16 66 0
-16 -66 0
88 17 0
-88 -17 0
22 92 0
-22 -92 0
6 36 0
-6 -36 0
127 35 0
-127 -35 0
87 7 0
-87 -7 0
46 96 0
-46 -96 0
77 83 0
-77 -83 0
108 41 0
-108 -41 0
59 91 0
-59 -91 0
45 132 0
-45 -132 0
7 119 0
-7 -119 0
27 111 0
-27 -111 0
77 96 0
-77 -96 0
72 116 0
-72 -116 0
44 86 0
-44 -86 0
86 31 0
-86 -31 0
53 17 0
-53 -17 0
40 82 0
-40 -82 0
1 106 0
-1 -106 0
25 124 0
-25 -124 0
33 140 0
-33 -140 0
58 9 0
-58 -9 0
77 106 0
-77 -106 0
88 19 0
-88 -19 0
98 41 0
-98 -41 0
114 126 0
-114 -126 0
92 27 0
-92 -27 0
100 81 0
-100 -81 0
9 123 0
-9 -123 0
85 111 0
-85 -111 0
99 103 0
-99 -103 0
106 139 0
-106 -139 0
1 58 0
-1 -58 0
40 109 0
-40 -109 0
60 75 0
-60 -75 0
16 26 0
-16 -26 0
125 15 0
-125 -15 0
49 132 0
-49 -132 0
88 92 0
-88 -92 0
102 73 0
-102 -73 0
60 27 0
-60 -27 0
11 97 0
-11 -97 0
66 103 0
-66 -103 0
22 112 0
-22 -112 0
21 94 0
-21 -94 0
113 2 0
-113 -2 0
22 60 0
-22 -60 0
4 132 0
-4 -132 0
123 137 0
-123 -137 0
82 108 0
-82 -108 0
43 73 0
-43 -73 0
127 134 0
-127 -134 0
25 57 0
-25 -57 0
33 136 0
-33 -136 0
120 17 0
-120 -17 0
88 82 0
-88 -82 0
140 64 0
-140 -64 0
102 38 0
-102 -38 0
74 24 0
-74 -24 0
56 96 0
-56 -96 0
75 61 0
-75 -61 0
74 31 0
-74 -31 0
131 130 0
-131 -130 0
40 61 0
-40 -61 0
93 96 0
-93 -96 0
5 136 0
-5 -136 0
134 118 0
-134 -118 0
75 91 0
-75 -91 0
135 69 0
-135 -69 0
32 130 0
-32 -130 0
74 22 0
-74 -22 0
4 86 0
-4 -86 0
115 119 0
-115 -119 0
64 105 0
-64 -105 0
66 116 0
-66 -116 0
107 91 0
-107 -91 0
54 29 0
-54 -29 0
62 123 0
-62 -123 0
20 127 0
-20 -127 0
120 22 0
-120 -22 0
140 98 0
-140 -98 0
45 35 0
-45 -35 0
20 105 0
-20 -105 0
122 55 0
-122 -55 0
69 5 0
-69 -5 0
1 93 0
-1 -93 0
134 2 0
-134 -2 0
8 34 0
-8 -34 0
59 126 0
-59 -126 0
126 11 0
-126 -11 0
107 27 0
-107 -27 0
64 63 0
-64 -63 0
45 31 0
-45 -31 0
22 96 0
-22 -96 0
100 7 0
-100 -7 0
20 31 0
-20 -31 0
72 73 0
-72 -73 0
60 42 0
-60 -42 0
64 86 0
-64 -86 0
104 128 0
-104 -128 0
6 96 0
-6 -96 0
77 68 0
-77 -68 0
39 57 0
-39 -57 0
125 86 0
-125 -86 0
140 54 0
-140 -54 0
56 13 0
-56 -13 0
97 38 0
-97 -38 0
75 62 0
-75 -62 0
15 96 0
-15 -96 0
120 96 0
-120 -96 0
69 13 0
-69 -13 0
79 135 0
-79 -135 0
113 139 0
-113 -139 0
67 96 0
-67 -96 0
77 29 0
-77 -29 0
80 126 0
-80 -126 0
87 103 0
-87 -103 0
113 68 0
-113 -68 0
12 45 0
-12 -45 0
60 45 0
-60 -45 0
12 53 0
-12 -53 0
113 111 0
-113 -111 0
33 12 0
-33 -12 0
6 101 0
-6 -101 0
59 71 0
-59 -71 0
117 5 0
-117 -5 0
104 58 0
-104 -58 0
3 132 0
-3 -132 0
117 90 0
-117 -90 0
98 117 0
-98 -117 0
9 122 0
-9 -122 0
30 11 0
-30 -11 0
9 112 0
-9 -112 0
51 26 0
-51 -26 0
117 31 0
-117 -31 0
12 82 0
-12 -82 0
30 37 0
-30 -37 0
35 97 0
-35 -97 0
93 57 0
-93 -57 0
92 44 0
-92 -44 0
9 87 0
-9 -87 0
132 78 0
-132 -78 0
63 71 0
-63 -71 0
77 82 0
-77 -82 0
83 130 0
-83 -130 0
74 107 0
-74 -107 0
104 50 0
-104 -50 0
115 116 0
-115 -116 0
40 12 0
-40 -12 0
131 121 0
-131 -121 0
40 55 0
-40 -55 0
118 128 0
-118 -128 0
132 24 0
-132 -24 0
3 31 0
-3 -31 0
104 124 0
-104 -124 0
6 122 0
-6 -122 0
12 128 0
-12 -128 0
53 20 0
-53 -20 0
21 57 0
-21 -57 0
59 51 0
-59 -51 0
44 96 0
-44 -96 0
106 11 0
-106 -11 0
89 5 0
-89 -5 0
61 124 0
-61 -124 0
79 94 0
-79 -94 0
102 47 0
-102 -47 0
74 88 0
-74 -88 0
56 53 0
-56 -53 0
58 75 0
-58 -75 0
84 90 0
-84 -90 0
104 81 0
-104 -81 0
122 57 0
-122 -57 0
100 118 0
-100 -118 0
14 5 0
-14 -5 0
53 42 0
-53 -42 0
21 8 0
-21 -8 0
135 29 0
-135 -29 0
30 111 0
-30 -111 0
65 58 0
-65 -58 0
102 29 0
-102 -29 0
56 40 0
-56 -40 0
137 46 0
-137 -46 0
16 123 0
-16 -123 0
59 139 0
-59 -139 0
23 64 0
-23 -64 0
29 73 0
-29 -73 0
97 52 0
-97 -52 0
31 130 0
-31 -130 0
12 101 0
-12 -101 0
131 137 0
-131 -137 0
62 118 0
-62 -118 0
64 61 0
-64 -61 0
83 96 0
-83 -96 0
62 130 0
-62 -130 0
43 112 0
-43 -112 0
83 10 0
-83 -10 0
114 57 0
-114 -57 0
35 91 0
-35 -91 0
80 41 0
-80 -41 0
125 60 0
-125 -60 0
23 134 0
-23 -134 0
92 47 0
-92 -47 0
53 62 0
-53 -62 0
79 96 0
-79 -96 0
76 105 0
-76 -105 0
66 109 0
-66 -109 0
47 27 0
-47 -27 0
59 50 0
-59 -50 0
137 38 0
-137 -38 0
4 138 0
-4 -138 0
23 126 0
-23 -126 0
65 112 0
-65 -112 0
108 110 0
-108 -110 0
103 57 0
-103 -57 0
120 40 0
-120 -40 0
75 18 0
-75 -18 0
129 121 0
-129 -121 0
115 112 0
-115 -112 0
77 127 0
-77 -127 0
113 122 0
-113 -122 0
135 66 0
-135 -66 0
87 128 0
-87 -128 0
33 22 0
-33 -22 0
107 92 0
-107 -92 0
59 34 0
-59 -34 0
65 108 0
-65 -108 0
128 37 0
-128 -37 0
39 109 0
-39 -109 0
67 37 0
-67 -37 0
115 2 0
-115 -2 0
117 46 0
-117 -46 0
